nNurses = 125;
nHours = 28;
minHours = 10;
maxHours = 13;
maxConsec = 11;
maxPresence = 24;
demand = [38, 39, 37, 33, 38, 33, 35, 34, 32, 27, 22, 24, 29, 31, 36, 34, 36, 32, 32, 31, 28, 29, 24, 23, 23, 18, 15, 19];
